Maximize
  0 x0 + 0 x1 + 0 x2 + 0 x3 + 0 x4 + 42 x5 + 0 x6 + 0 x7 + 0 x8 + 0 x9
   + 0 x10 + 0 x11 + 0 x12 + 0 x13 + 0 x14 + 0 x15 + 11 x16 - 29 x17
   + 12 x18 - 35 x19 + 0 x20 + 0 x21 + 0 x22 + 0 x23 + 0 x24 + 0 x25
   + 0 x26 + 0 x27 + 0 x28 + 0 x29 + 0 x30 + 0 x31 + 0 x32 + 0 x33 + 0 x34
   + 0 x35 + 0 x36 + 0 x37 + 13 x38 - 30 x39 + 0 x40 + 0 x41 + 46 x42
   - 25 x43 + 0 x44 + 0 x45 + 0 x46 + 0 x47 + 0 x48 + 0 x49 + 0 x50 + 0 x51
   + 0 x52 + 45 x53 + 0 x54 + 0 x55 + 0 x56 + 0 x57 + 0 x58 + 0 x59 + 0 x60
   + 28 x61 + 0 x62 + 0 x63 - 4 x64 + 0 x65 + 0 x66 + 0 x67 + 0 x68 + 0 x69
   + 0 x70 + 0 x71 + 0 x72 + 0 x73 + 0 x74 + 0 x75 + 0 x76 + 28 x77
   - 47 x78 + 0 x79 + 0 x80 + 0 x81 + 0 x82 + 0 x83 + 0 x84 + 41 x85
   + 0 x86 + 0 x87 - 40 x88 - 17 x89 + [ - 6 x0 * x7 - 12 x0 * x8
   + 56 x0 * x10 - 6 x0 * x12 + 36 x0 * x13 - 36 x0 * x18 + 2 x0 * x19
   + 82 x0 * x24 + 28 x0 * x27 + 86 x0 * x28 - 30 x0 * x29 + 42 x0 * x37
   + 86 x0 * x44 + 8 x0 * x54 + 76 x0 * x55 - 92 x0 * x57 + 66 x0 * x59
   - 44 x0 * x60 + 72 x0 * x65 - 8 x0 * x71 + 56 x0 * x73 + 44 x0 * x77
   + 10 x0 * x83 + 30 x0 * x87 + 74 x1 * x2 + 72 x1 * x4 - 60 x1 * x12
   - 98 x1 * x15 - 26 x1 * x19 + 80 x1 * x24 + 58 x1 * x31 - 72 x1 * x37
   + 74 x1 * x38 + 42 x1 * x41 - 98 x1 * x42 + 44 x1 * x55 + 44 x1 * x60
   + 84 x1 * x66 + 80 x1 * x68 - 38 x1 * x71 - 38 x1 * x76 + 84 x1 * x80
   + 86 x1 * x81 - 8 x1 * x83 - 8 x1 * x84 + 12 x1 * x88 - 44 x2 * x5
   - 66 x2 * x12 + 34 x2 * x15 + 58 x2 * x16 + 94 x2 * x18 - 84 x2 * x24
   - 76 x2 * x28 - 72 x2 * x29 - 20 x2 * x31 + 4 x2 * x34 - 68 x2 * x48
   - 86 x2 * x57 + 76 x2 * x59 - 34 x2 * x61 + 58 x2 * x65 + 64 x2 * x70
   - 22 x2 * x74 - 54 x2 * x79 - 40 x3 * x13 + 10 x3 * x21 - 78 x3 * x26
   - 82 x3 * x27 + 76 x3 * x30 + 12 x3 * x32 - 34 x3 * x38 - 46 x3 * x40
   - 36 x3 * x52 - 14 x3 * x56 - 94 x3 * x67 + 84 x3 * x70 - 30 x3 * x71
   - 62 x3 * x76 - 80 x3 * x77 + 96 x3 * x78 + 62 x3 * x82 + 36 x3 * x86
   + 8 x4 * x7 - 14 x4 * x10 - 22 x4 * x11 + 72 x4 * x12 + 10 x4 * x13
   - 68 x4 * x17 + 86 x4 * x22 - 64 x4 * x23 + 52 x4 * x28 - 54 x4 * x35
   + 70 x4 * x43 - 6 x4 * x44 - 56 x4 * x45 + 34 x4 * x48 + 16 x4 * x51
   - 46 x4 * x57 - 70 x4 * x60 - 92 x4 * x68 + 72 x4 * x70 - 40 x4 * x78
   + 26 x4 * x86 - 48 x5 * x8 + 8 x5 * x10 + 80 x5 * x13 - 24 x5 * x14
   - 96 x5 * x16 + 8 x5 * x19 - 14 x5 * x20 - 52 x5 * x22 + 2 x5 * x23
   - 66 x5 * x24 + 96 x5 * x32 + 96 x5 * x33 - 18 x5 * x36 - 78 x5 * x40
   - 6 x5 * x42 - 52 x5 * x45 - 74 x5 * x47 + 8 x5 * x52 + 62 x5 * x62
   + 50 x5 * x64 - 98 x5 * x76 - 66 x5 * x77 - 64 x5 * x81 - 32 x5 * x82
   - 70 x5 * x85 + 80 x5 * x87 + 32 x5 * x89 + 78 x6 * x8 + 86 x6 * x12
   + 10 x6 * x16 - 30 x6 * x17 + 44 x6 * x20 - 94 x6 * x22 + 56 x6 * x28
   + 52 x6 * x34 - 74 x6 * x36 - 32 x6 * x38 - 70 x6 * x40 - 32 x6 * x45
   + 16 x6 * x47 - 66 x6 * x56 - 14 x6 * x66 + 82 x6 * x69 - 34 x6 * x74
   + 80 x6 * x79 - 56 x6 * x84 + 80 x6 * x87 - 24 x7 * x13 - 28 x7 * x16
   + 8 x7 * x17 - 58 x7 * x18 + 12 x7 * x23 + 98 x7 * x24 - 78 x7 * x29
   - 4 x7 * x30 - 80 x7 * x31 - 46 x7 * x33 - 26 x7 * x37 - 46 x7 * x46
   + 54 x7 * x48 - 22 x7 * x50 + 50 x7 * x52 + 18 x7 * x54 + 2 x7 * x58
   - 38 x7 * x59 - 34 x7 * x66 + 66 x7 * x76 - 24 x7 * x80 + 36 x7 * x83
   + 48 x7 * x85 - 70 x7 * x86 - 18 x7 * x89 - 60 x8 * x11 + 52 x8 * x14
   + 16 x8 * x16 - 20 x8 * x20 - 64 x8 * x39 - 60 x8 * x41 + 98 x8 * x45
   - 28 x8 * x47 - 98 x8 * x50 + 66 x8 * x54 + 74 x8 * x55 - 38 x8 * x56
   - 36 x8 * x62 - 98 x8 * x67 - 24 x8 * x75 + 84 x8 * x84 - 22 x8 * x88
   + 94 x8 * x89 - 32 x9 ^2 + 6 x9 * x13 + 34 x9 * x19 - 74 x9 * x26
   + 62 x9 * x29 - 30 x9 * x30 + 38 x9 * x31 - 32 x9 * x48 + 66 x9 * x50
   + 98 x9 * x51 + 78 x9 * x56 + 80 x9 * x58 - 56 x9 * x61 + 16 x9 * x73
   + 90 x9 * x75 - 22 x9 * x77 - 50 x9 * x79 - 48 x9 * x81 + 42 x10 ^2
   - 90 x10 * x15 - 66 x10 * x23 + 18 x10 * x24 + 78 x10 * x25
   - 2 x10 * x33 - 68 x10 * x43 - 62 x10 * x45 - 36 x10 * x52
   + 76 x10 * x55 + 96 x10 * x57 + 26 x10 * x59 + 56 x10 * x68
   - 44 x10 * x72 + 68 x10 * x89 - 94 x11 * x21 - 68 x11 * x27
   - 32 x11 * x40 - 56 x11 * x42 - 52 x11 * x44 + 72 x11 * x45
   + 94 x11 * x48 + 36 x11 * x54 + 98 x11 * x55 + 6 x11 * x59
   + 64 x11 * x60 + 92 x11 * x67 - 74 x11 * x73 + 62 x11 * x75
   - 40 x11 * x77 - 48 x11 * x78 - 16 x11 * x79 + 26 x11 * x82
   + 80 x11 * x88 - 46 x12 * x21 - 2 x12 * x22 - 98 x12 * x28
   - 28 x12 * x29 - 80 x12 * x34 - 14 x12 * x36 - 62 x12 * x38
   + 42 x12 * x39 + 66 x12 * x42 + 98 x12 * x50 - 80 x12 * x51
   - 58 x12 * x52 + 86 x12 * x56 + 4 x12 * x62 - 8 x12 * x63 + 56 x12 * x71
   + 54 x12 * x72 + 34 x12 * x78 + 36 x12 * x86 - 92 x13 * x23
   + 24 x13 * x25 + 32 x13 * x28 - 62 x13 * x29 - 2 x13 * x30
   + 98 x13 * x33 - 46 x13 * x39 + 4 x13 * x43 - 18 x13 * x45
   + 80 x13 * x50 - 96 x13 * x55 + 64 x13 * x59 + 54 x13 * x63
   + 48 x13 * x69 + 2 x13 * x71 + 96 x13 * x83 - 38 x13 * x87
   + 70 x14 * x15 + 66 x14 * x18 - 70 x14 * x22 - 50 x14 * x27
   + 8 x14 * x35 + 84 x14 * x36 - 16 x14 * x39 + 16 x14 * x40
   + 90 x14 * x41 + 74 x14 * x42 - 8 x14 * x56 + 56 x14 * x57
   + 74 x14 * x60 - 28 x14 * x64 + 46 x14 * x65 + 30 x14 * x66
   - 98 x14 * x68 + 72 x14 * x70 + 84 x14 * x71 - 82 x14 * x73
   + 20 x14 * x76 - 94 x14 * x78 - 78 x14 * x80 - 12 x14 * x81
   + 56 x14 * x84 - 32 x14 * x85 - 22 x14 * x86 - 12 x14 * x89 - 16 x15 ^2
   + 34 x15 * x17 - 54 x15 * x20 - 86 x15 * x22 - 24 x15 * x25
   - 90 x15 * x28 + 2 x15 * x33 - 22 x15 * x36 + 40 x15 * x44
   + 22 x15 * x46 - 28 x15 * x48 - 64 x15 * x53 + 54 x15 * x54
   - 70 x15 * x57 + 98 x15 * x63 - 32 x15 * x68 + 70 x15 * x81
   + 56 x15 * x86 - 16 x15 * x88 + 19 x16 ^2 - 14 x16 * x18 - 14 x16 * x27
   - 64 x16 * x33 + 66 x16 * x36 - 14 x16 * x39 - 90 x16 * x40
   + 62 x16 * x47 - 6 x16 * x49 + 92 x16 * x52 - 80 x16 * x59
   + 16 x16 * x62 - 28 x16 * x68 + 20 x16 * x70 - 86 x16 * x72
   + 12 x16 * x78 + 10 x16 * x87 - 80 x16 * x89 - 8 x17 * x20
   + 22 x17 * x23 - 94 x17 * x33 - 84 x17 * x37 - 28 x17 * x40
   + 16 x17 * x51 - 50 x17 * x54 - 92 x17 * x64 - 92 x17 * x68
   + 16 x17 * x73 + 42 x17 * x78 - 16 x17 * x79 + 4 x17 * x89 + 4 x18 * x20
   - 8 x18 * x24 - 20 x18 * x27 + 38 x18 * x28 - 14 x18 * x46
   - 88 x18 * x47 + 14 x18 * x48 + 72 x18 * x53 - 96 x18 * x59
   + 24 x18 * x68 + 98 x18 * x76 - 28 x18 * x79 + 28 x18 * x83
   + 20 x18 * x87 + 98 x19 * x20 + 34 x19 * x28 - 66 x19 * x29
   - 60 x19 * x35 - 98 x19 * x36 + 68 x19 * x40 - 16 x19 * x56
   - 34 x19 * x60 + 82 x19 * x63 + 70 x19 * x64 - 4 x19 * x66
   - 48 x19 * x69 + 60 x19 * x72 - 48 x19 * x75 + 22 x19 * x77
   + 76 x19 * x84 + 84 x19 * x85 + 12 x20 * x21 + 80 x20 * x32
   + 42 x20 * x33 - 78 x20 * x35 + 44 x20 * x39 + 36 x20 * x43
   - 18 x20 * x52 - 64 x20 * x54 + 44 x20 * x55 + 58 x20 * x58
   + 48 x20 * x59 + 8 x20 * x64 + 56 x20 * x73 - 18 x20 * x74
   + 76 x20 * x78 + 38 x20 * x82 + 42 x21 * x22 + 52 x21 * x23
   + 52 x21 * x24 + 18 x21 * x27 - 98 x21 * x28 + 60 x21 * x36
   - 44 x21 * x38 + 12 x21 * x40 - 98 x21 * x42 + 18 x21 * x45
   + 16 x21 * x48 + 62 x21 * x50 + 16 x21 * x53 - 12 x21 * x56
   - 30 x21 * x57 - 14 x21 * x60 - 66 x21 * x65 - 42 x21 * x73
   - 74 x21 * x74 + 86 x21 * x75 + 40 x21 * x79 - 22 x21 * x81
   + 34 x21 * x82 - 14 x21 * x89 - 84 x22 * x29 + 88 x22 * x32
   - 34 x22 * x34 - 68 x22 * x35 - 86 x22 * x36 - 84 x22 * x41
   + 74 x22 * x42 - 52 x22 * x45 + 18 x22 * x50 + 64 x22 * x55
   + 22 x22 * x58 + 54 x22 * x59 + 22 x22 * x66 - 26 x22 * x67
   - 22 x22 * x68 + 84 x22 * x70 + 28 x22 * x74 - 54 x22 * x75
   + 8 x22 * x77 + 38 x22 * x88 - 25 x23 ^2 + 66 x23 * x32 + 18 x23 * x37
   + 18 x23 * x38 - 46 x23 * x41 + 66 x23 * x44 + 6 x23 * x47
   - 32 x23 * x52 - 50 x23 * x58 + 52 x23 * x72 - 60 x23 * x83
   - 26 x23 * x86 + 48 x23 * x89 - 54 x24 * x25 + 42 x24 * x26
   - 58 x24 * x28 - 16 x24 * x29 + 6 x24 * x32 - 24 x24 * x37
   + 52 x24 * x42 - 92 x24 * x50 + 88 x24 * x51 + 8 x24 * x58
   + 82 x24 * x59 - 90 x24 * x65 - 88 x24 * x67 - 4 x24 * x76
   - 84 x24 * x79 + 14 x24 * x89 + 2 x25 ^2 + 44 x25 * x30 - 80 x25 * x32
   - 50 x25 * x38 - 46 x25 * x39 + 66 x25 * x42 + 54 x25 * x45
   + 80 x25 * x47 + 60 x25 * x48 - 42 x25 * x49 + 8 x25 * x56
   - 66 x25 * x57 + 8 x25 * x62 + 76 x25 * x64 - 16 x25 * x68
   - 56 x25 * x72 + 16 x25 * x76 - 62 x25 * x81 + 54 x25 * x87
   + 10 x26 * x35 + 16 x26 * x37 - 60 x26 * x40 - 54 x26 * x47
   - 88 x26 * x48 + 2 x26 * x50 - 68 x26 * x52 + 18 x26 * x57
   + 62 x26 * x61 + 22 x26 * x68 - 94 x26 * x71 + 14 x26 * x76
   - 16 x26 * x78 - 24 x26 * x80 + 8 x26 * x82 - 82 x26 * x85
   - 76 x26 * x86 + 10 x26 * x87 - 30 x27 * x33 - 62 x27 * x41
   + 32 x27 * x49 + 32 x27 * x50 - 2 x27 * x54 - 92 x27 * x57
   - 50 x27 * x63 - 92 x27 * x64 - 46 x27 * x68 - 78 x27 * x69
   + 10 x27 * x75 + 2 x27 * x76 - 80 x27 * x78 - 38 x27 * x82
   + 46 x27 * x86 - 28 x27 * x87 + 10 x27 * x88 - 38 x28 * x29
   - 98 x28 * x33 - 48 x28 * x42 + 94 x28 * x43 - 92 x28 * x56
   - 54 x28 * x62 + 44 x28 * x66 + 44 x28 * x68 + 52 x28 * x69
   + 2 x28 * x71 + 24 x28 * x76 + 64 x28 * x77 - 8 x28 * x87 + 94 x28 * x88
   + 2 x29 * x33 + 86 x29 * x37 + 96 x29 * x42 + 10 x29 * x50
   - 30 x29 * x56 + 24 x29 * x58 - 78 x29 * x66 - 94 x29 * x72
   + 92 x29 * x81 + 38 x29 * x84 - 84 x30 * x31 - 22 x30 * x35
   - 4 x30 * x38 + 60 x30 * x40 - 24 x30 * x43 + 6 x30 * x44 + 8 x30 * x45
   - 88 x30 * x46 + 58 x30 * x47 - 16 x30 * x49 - 44 x30 * x50
   - 48 x30 * x51 + 60 x30 * x58 + 94 x30 * x61 + 80 x30 * x65
   + 28 x30 * x69 + 82 x30 * x72 + 80 x30 * x74 + 74 x30 * x78
   + 40 x30 * x83 - 25 x31 ^2 + 76 x31 * x37 - 68 x31 * x54 - 14 x31 * x65
   - 72 x31 * x67 - 24 x31 * x71 - 14 x31 * x76 - 66 x31 * x80
   - 90 x31 * x87 + 62 x31 * x88 - 92 x31 * x89 + 8 x32 ^2 + 82 x32 * x40
   + 2 x32 * x46 + 90 x32 * x48 - 58 x32 * x49 + 50 x32 * x50
   + 54 x32 * x55 - 26 x32 * x58 + 14 x32 * x60 - 70 x32 * x68
   + 94 x32 * x75 + 32 x32 * x77 - 30 x32 * x78 - 6 x32 * x79 + 2 x32 * x82
   + 94 x32 * x83 + 76 x32 * x84 + 16 x32 * x85 - 12 x33 * x38
   + 48 x33 * x39 - 6 x33 * x40 + 88 x33 * x46 + 20 x33 * x50
   + 28 x33 * x54 - 80 x33 * x69 + 66 x33 * x72 - 80 x33 * x89
   + 50 x34 * x35 + 92 x34 * x41 + 40 x34 * x48 - 80 x34 * x53
   - 68 x34 * x57 - 38 x34 * x63 + 74 x34 * x65 + 88 x34 * x68
   + 80 x34 * x71 - 26 x34 * x78 + 42 x34 * x87 - 60 x35 * x39
   - 50 x35 * x40 - 14 x35 * x43 + 44 x35 * x44 - 26 x35 * x48
   + 14 x35 * x67 - 32 x35 * x68 + 82 x35 * x69 + 70 x35 * x71
   + 64 x35 * x78 - 68 x36 * x37 + 58 x36 * x39 + 28 x36 * x40
   - 10 x36 * x41 - 20 x36 * x49 - 34 x36 * x52 - 70 x36 * x53
   + 68 x36 * x67 - 54 x36 * x69 - 74 x36 * x70 - 80 x36 * x73
   - 54 x36 * x74 - 60 x36 * x76 + 18 x36 * x80 + 94 x36 * x85 - 23 x37 ^2
   - 78 x37 * x41 + 56 x37 * x46 - 14 x37 * x49 - 14 x37 * x50
   - 10 x37 * x51 - 18 x37 * x55 + 30 x37 * x57 - 16 x37 * x59
   + 24 x37 * x76 + 32 x37 * x85 - 80 x37 * x87 + 54 x38 * x41
   + 8 x38 * x46 - 78 x38 * x47 - 54 x38 * x52 + 26 x38 * x63
   + 28 x38 * x67 + 28 x38 * x68 - 96 x38 * x69 - 8 x38 * x70
   + 66 x38 * x71 - 46 x38 * x76 - 36 x38 * x83 + 72 x39 * x45
   - 54 x39 * x48 - 26 x39 * x50 - 6 x39 * x54 - 84 x39 * x56
   - 30 x39 * x69 + 30 x39 * x81 + 46 x39 * x83 - 8 x39 * x86
   + 30 x40 * x46 - 88 x40 * x48 + 68 x40 * x49 - 4 x40 * x50
   - 48 x40 * x51 - 44 x40 * x54 - 86 x40 * x55 + 28 x40 * x59
   + 68 x40 * x60 - 8 x40 * x74 - 58 x40 * x79 + 86 x40 * x80
   + 10 x40 * x82 - 78 x40 * x89 + 78 x41 * x46 + 92 x41 * x53
   - 88 x41 * x57 - 26 x41 * x59 - 38 x41 * x61 + 12 x41 * x62
   + 32 x41 * x65 - 82 x41 * x68 + 56 x41 * x72 - 6 x41 * x79
   - 54 x41 * x85 - 92 x41 * x86 + 72 x42 * x43 + 6 x42 * x45
   - 82 x42 * x47 + 52 x42 * x53 - 36 x42 * x55 + 46 x42 * x56
   - 88 x42 * x64 - 18 x42 * x67 + 66 x42 * x74 + 54 x42 * x76
   + 58 x42 * x79 + 30 x42 * x84 - 68 x42 * x86 - 28 x42 * x88
   + 20 x42 * x89 + 64 x43 * x45 - 24 x43 * x50 - 62 x43 * x51
   + 90 x43 * x56 + 54 x43 * x61 - 82 x43 * x68 + 60 x43 * x74
   - 6 x43 * x76 - 18 x43 * x83 + 20 x43 * x85 - 66 x43 * x88 - 8 x44 * x56
   + 78 x44 * x62 + 46 x44 * x63 + 92 x44 * x69 - 34 x44 * x72
   + 76 x44 * x78 - 48 x44 * x82 + 50 x45 * x47 + 54 x45 * x49
   + 74 x45 * x50 + 26 x45 * x56 + 10 x45 * x63 + 8 x45 * x71
   - 98 x45 * x72 + 82 x45 * x75 + 30 x45 * x76 - 44 x45 * x85
   - 56 x45 * x87 - 30 x45 * x88 - 64 x46 * x48 + 92 x46 * x55
   + 2 x46 * x56 + 50 x46 * x61 - 60 x46 * x63 - 44 x46 * x67
   - 92 x46 * x68 - 10 x46 * x71 + 90 x46 * x74 - 36 x46 * x76
   + 20 x46 * x78 - 34 x46 * x80 - 76 x46 * x85 + 22 x47 * x48
   - 20 x47 * x49 + 80 x47 * x63 + 46 x47 * x68 + 12 x47 * x69
   - 68 x47 * x70 - 20 x47 * x71 - 54 x47 * x77 + 74 x47 * x78
   - 14 x48 * x49 + 34 x48 * x50 - 34 x48 * x51 - 34 x48 * x52
   + 68 x48 * x60 - 90 x48 * x63 - 28 x48 * x81 + 54 x48 * x83
   + 44 x49 * x50 - 2 x49 * x54 + 40 x49 * x55 - 58 x49 * x63
   + 92 x49 * x64 + 26 x49 * x69 - 56 x49 * x72 - 22 x49 * x74
   - 24 x49 * x76 + 40 x49 * x82 + 34 x49 * x83 + 14 x50 * x53
   + 60 x50 * x58 - 56 x50 * x59 + 38 x50 * x60 + 84 x50 * x61
   - 4 x50 * x66 - 50 x50 * x68 - 60 x50 * x76 - 24 x50 * x77
   - 64 x50 * x83 - 46 x50 * x86 - 70 x50 * x89 + 36 x51 * x57
   - 18 x51 * x63 + 36 x51 * x65 + 30 x51 * x74 + 64 x51 * x77
   - 40 x51 * x84 - 52 x51 * x88 + 94 x52 * x60 - 78 x52 * x65
   - 62 x52 * x76 + 80 x52 * x77 - 10 x52 * x79 + 36 x52 * x81
   + 28 x52 * x84 - 6 x53 * x56 - 92 x53 * x57 + 38 x53 * x58
   - 22 x53 * x61 + 88 x53 * x71 + 56 x53 * x73 + 56 x54 * x55
   + 68 x54 * x59 - 92 x54 * x61 + 30 x54 * x65 - 42 x54 * x66
   + 82 x54 * x68 + 78 x54 * x82 - 28 x55 * x56 - 56 x55 * x58
   + 20 x55 * x59 - 52 x55 * x66 - 72 x55 * x67 + 88 x55 * x68
   + 54 x55 * x80 - 20 x55 * x88 + 78 x56 * x63 + 20 x56 * x64
   + 28 x56 * x66 - 86 x56 * x67 + 54 x56 * x73 + 58 x56 * x74
   - 38 x56 * x75 - 24 x56 * x78 + 72 x56 * x79 - 52 x56 * x81
   - 26 x56 * x85 - 34 x56 * x86 - 46 x56 * x88 - 4 x56 * x89 + 23 x57 ^2
   + 56 x57 * x58 + 40 x57 * x60 - 80 x57 * x68 + 46 x57 * x73
   + 24 x57 * x78 + 80 x57 * x79 - 98 x57 * x81 + 46 x57 * x82
   + 86 x57 * x86 + 28 x57 * x89 + 38 x58 ^2 + 98 x58 * x60 - 28 x58 * x61
   + 82 x58 * x63 - 56 x58 * x65 + 20 x58 * x66 - 86 x58 * x72
   + 52 x58 * x79 - 80 x58 * x80 - 62 x58 * x82 + 16 x58 * x87
   + 36 x59 * x60 + 60 x59 * x62 + 86 x59 * x72 - 20 x59 * x73
   - 40 x59 * x85 - 56 x59 * x87 - 8 x60 * x63 - 38 x60 * x70
   - 90 x60 * x76 - 60 x60 * x78 - 84 x60 * x79 - 30 x60 * x87
   + 44 x61 * x64 - 70 x61 * x72 - 54 x61 * x73 - 74 x61 * x80
   + 66 x61 * x82 - 20 x61 * x84 - 58 x61 * x87 + 68 x61 * x88
   - 38 x61 * x89 + 48 x62 ^2 - 64 x62 * x64 - 38 x62 * x69 - 40 x62 * x74
   - 36 x62 * x87 + 86 x63 * x64 - 38 x63 * x67 + 78 x63 * x68
   - 36 x63 * x69 + 44 x63 * x80 - 28 x63 * x89 - 84 x64 * x65
   - 96 x64 * x68 + 80 x64 * x69 - 20 x64 * x74 + 46 x64 * x81
   - 80 x64 * x82 + 46 x64 * x83 - 82 x64 * x84 - 6 x64 * x86
   - 70 x64 * x87 - 94 x64 * x88 + 14 x64 * x89 - 43 x65 ^2 - 96 x65 * x67
   + 70 x65 * x72 + 80 x65 * x73 + 6 x65 * x80 - 46 x65 * x81
   + 86 x65 * x82 - 12 x65 * x88 + 98 x65 * x89 - 15 x66 ^2 + 48 x66 * x67
   - 76 x66 * x72 + 34 x66 * x75 - 80 x66 * x78 + 28 x66 * x80
   - 78 x66 * x87 + 4 x66 * x89 - 22 x67 * x68 - 86 x67 * x70
   - 96 x67 * x75 + 64 x67 * x79 - 52 x67 * x84 - 30 x68 * x73
   + 50 x68 * x78 - 96 x68 * x84 - 48 x68 * x86 - 42 x69 ^2 + 46 x69 * x75
   - 4 x69 * x77 - 10 x69 * x78 - 6 x69 * x79 - 8 x69 * x80 - 80 x69 * x84
   + 41 x70 ^2 + 4 x70 * x77 - 30 x70 * x80 - 98 x70 * x82 + 64 x70 * x83
   + 92 x70 * x87 - 28 x71 * x73 - 86 x71 * x77 - 52 x71 * x83
   - 60 x71 * x84 + 18 x72 ^2 + 44 x72 * x80 - 26 x72 * x81 + 44 x72 * x86
   + 2 x73 * x74 - 82 x73 * x75 - 78 x73 * x81 - 26 x73 * x82
   + 52 x73 * x83 - 94 x73 * x86 - 17 x74 ^2 + 62 x74 * x76 - 8 x74 * x81
   + 88 x74 * x82 + 36 x75 ^2 + 94 x75 * x79 - 62 x75 * x82 + 86 x75 * x83
   + 86 x75 * x87 - 86 x76 * x80 - 58 x76 * x84 + 92 x76 * x85
   + 50 x76 * x89 + 78 x77 * x81 - 30 x77 * x85 + 60 x77 * x87
   - 26 x77 * x89 - 82 x78 * x80 - 34 x78 * x81 + 16 x78 * x87
   - 88 x79 * x82 + 18 x79 * x84 + 72 x80 * x82 - 72 x80 * x83
   + 24 x80 * x89 + 84 x81 * x85 - 14 x82 * x85 - 92 x82 * x86
   - 64 x82 * x87 + 8 x83 * x88 - 10 x85 ^2 - 50 x85 * x86 - 42 x86 ^2
   - 34 x86 * x88 + x88 ^2 ] / 2 
Subject To
Bounds
 x0 <= 1
 x1 <= 1
 x2 <= 1
 x3 <= 1
 x4 <= 1
 x5 <= 1
 x6 <= 1
 x7 <= 1
 x8 <= 1
 x9 <= 1
 x10 <= 1
 x11 <= 1
 x12 <= 1
 x13 <= 1
 x14 <= 1
 x15 <= 1
 x16 <= 1
 x17 <= 1
 x18 <= 1
 x19 <= 1
 x20 <= 1
 x21 <= 1
 x22 <= 1
 x23 <= 1
 x24 <= 1
 x25 <= 1
 x26 <= 1
 x27 <= 1
 x28 <= 1
 x29 <= 1
 x30 <= 1
 x31 <= 1
 x32 <= 1
 x33 <= 1
 x34 <= 1
 x35 <= 1
 x36 <= 1
 x37 <= 1
 x38 <= 1
 x39 <= 1
 x40 <= 1
 x41 <= 1
 x42 <= 1
 x43 <= 1
 x44 <= 1
 x45 <= 1
 x46 <= 1
 x47 <= 1
 x48 <= 1
 x49 <= 1
 x50 <= 1
 x51 <= 1
 x52 <= 1
 x53 <= 1
 x54 <= 1
 x55 <= 1
 x56 <= 1
 x57 <= 1
 x58 <= 1
 x59 <= 1
 x60 <= 1
 x61 <= 1
 x62 <= 1
 x63 <= 1
 x64 <= 1
 x65 <= 1
 x66 <= 1
 x67 <= 1
 x68 <= 1
 x69 <= 1
 x70 <= 1
 x71 <= 1
 x72 <= 1
 x73 <= 1
 x74 <= 1
 x75 <= 1
 x76 <= 1
 x77 <= 1
 x78 <= 1
 x79 <= 1
 x80 <= 1
 x81 <= 1
 x82 <= 1
 x83 <= 1
 x84 <= 1
 x85 <= 1
 x86 <= 1
 x87 <= 1
 x88 <= 1
 x89 <= 1
End
